100
128
57
2
23
16
33
35
62
7
53
15
14
14
9
30
13
11
23
1
24
56
36
14
61
39
23
55
22
48
21
17
13
43
57
56
31
18
23
24
57
23
36
60
16
43
12
44
23
42
29
13
39
43
19
27
28
16
30
23
47
60
35
37
17
19
1
13
26
10
27
21
1
23
55
38
28
24
37
24
51
47
34
20
55
36
32
23
15
21
44
46
47
38
58
36
18
47
27
57
63
51